
Gurobi 11.0.0 (linux64) logging started Fri Apr 12 13:52:57 2024

Set parameter LogFile to value "/lustre1/scratch/348/vsc34888/JointResearch/05.Models/06.Benchmarking/K.Investments_per_hour/RTS24_ByStages_nc30/openStarNet_RTS24_ByStages_nc30.log"
Set parameter Method to value 2
Set parameter MIPFocus to value 1
Set parameter Presolve to value 2
Set parameter RINS to value 100
Set parameter MIPGap to value 0.01
Set parameter Threads to value 36
Set parameter TimeLimit to value 259200
Set parameter IterationLimit to value 760000000
Gurobi Optimizer version 11.0.0 build v11.0.0rc2 (linux64 - "Rocky Linux 8.8 (Green Obsidian)")

CPU model: Intel(R) Xeon(R) Gold 6240 CPU @ 2.60GHz, instruction set [SSE2|AVX|AVX2|AVX512]
Thread count: 36 physical cores, 36 logical processors, using up to 36 threads

Optimize a model with 11673 rows, 6911 columns and 30872 nonzeros
Model fingerprint: 0x7ab65458
Variable types: 6881 continuous, 30 integer (30 binary)
Coefficient statistics:
  Matrix range     [3e-02, 8e+02]
  Objective range  [1e+00, 1e+00]
  Bounds range     [8e-04, 3e+00]
  RHS range        [8e-04, 3e+00]
Presolve removed 6243 rows and 3210 columns
Presolve time: 0.05s
Presolved: 5430 rows, 3701 columns, 19089 nonzeros
Variable types: 3671 continuous, 30 integer (30 binary)
Found heuristic solution: objective 340.0684823
Root relaxation presolved: 5430 rows, 3701 columns, 19089 nonzeros

Root barrier log...

Ordering time: 0.00s

Barrier statistics:
 Dense cols : 30
 AA' NZ     : 4.008e+04
 Factor NZ  : 1.054e+05 (roughly 5 MB of memory)
 Factor Ops : 2.246e+06 (less than 1 second per iteration)
 Threads    : 36

                  Objective                Residual
Iter       Primal          Dual         Primal    Dual     Compl     Time
   0   7.88039586e+05 -3.58506108e+07  6.24e+00 2.86e+02  9.19e+03     0s
   1   1.20521744e+05 -1.11443128e+07  8.10e-01 6.95e-10  1.42e+03     0s
   2   3.64740322e+04 -3.08536262e+06  1.29e-01 2.74e-09  3.05e+02     0s
   3   1.39433287e+04 -2.34897521e+05  8.53e-14 1.92e-10  2.18e+01     0s
   4   1.31984695e+03 -8.27645938e+03  1.18e-13 3.35e-12  8.42e-01     0s
   5   4.70334013e+02 -1.97312058e+03  9.15e-14 9.09e-13  2.14e-01     0s
   6   3.33767095e+02 -4.59287287e+02  4.71e-14 9.09e-13  6.96e-02     0s
   7   2.55462252e+02 -6.89001090e+01  1.24e-13 9.09e-13  2.85e-02     0s
   8   2.05369657e+02  8.59906394e+01  5.95e-14 9.09e-13  1.05e-02     0s
   9   1.85809091e+02  1.16878948e+02  7.59e-13 1.82e-12  6.05e-03     0s
  10   1.74341214e+02  1.49961579e+02  7.59e-13 9.09e-13  2.14e-03     0s
  11   1.65885176e+02  1.57287971e+02  1.07e-12 1.82e-12  7.55e-04     0s
  12   1.63864080e+02  1.60099734e+02  3.36e-12 9.09e-13  3.30e-04     0s
  13   1.63149163e+02  1.60506947e+02  3.97e-12 1.82e-12  2.32e-04     0s
  14   1.62591752e+02  1.61013932e+02  8.82e-12 9.09e-13  1.39e-04     0s
  15   1.62215023e+02  1.61100197e+02  1.21e-11 9.09e-13  9.79e-05     0s
  16   1.61942150e+02  1.61501506e+02  8.37e-12 1.82e-12  3.87e-05     0s
  17   1.61774092e+02  1.61557973e+02  1.87e-11 1.82e-12  1.90e-05     0s
  18   1.61690377e+02  1.61637617e+02  4.59e-11 1.82e-12  4.63e-06     0s
  19   1.61672964e+02  1.61641182e+02  3.06e-11 9.09e-13  2.79e-06     0s
  20   1.61645358e+02  1.61643041e+02  3.58e-11 1.82e-12  2.03e-07     0s
  21   1.61644734e+02  1.61644678e+02  1.65e-09 1.82e-12  4.99e-09     0s
  22   1.61644731e+02  1.61644730e+02  4.65e-11 1.82e-12  5.83e-11     0s

Barrier solved model in 22 iterations and 0.23 seconds (0.17 work units)
Optimal objective 1.61644731e+02


Root relaxation: objective 1.616447e+02, 636 iterations, 0.17 seconds (0.08 work units)

    Nodes    |    Current Node    |     Objective Bounds      |     Work
 Expl Unexpl |  Obj  Depth IntInf | Incumbent    BestBd   Gap | It/Node Time

     0     0  161.64473    0   22  340.06848  161.64473  52.5%     -    0s
     0     0  164.23778    0   14  340.06848  164.23778  51.7%     -    0s
H    0     0                     312.7564365  164.23778  47.5%     -    0s
     0     0  164.66458    0   16  312.75644  164.66458  47.4%     -    0s
H    0     0                     240.8626715  164.67760  31.6%     -    0s
     0     0  164.67760    0   16  240.86267  164.67760  31.6%     -    0s
     0     0  164.67760    0   16  240.86267  164.67760  31.6%     -    0s
     0     0  165.83257    0   16  240.86267  165.83257  31.2%     -    0s
     0     0  165.86836    0   16  240.86267  165.86836  31.1%     -    0s
     0     0  165.86836    0   16  240.86267  165.86836  31.1%     -    0s
     0     0  166.11955    0   17  240.86267  166.11955  31.0%     -    0s
     0     0  166.72205    0   15  240.86267  166.72205  30.8%     -    1s
     0     0  166.76318    0   15  240.86267  166.76318  30.8%     -    1s
     0     0  168.00671    0   15  240.86267  168.00671  30.2%     -    1s
H    0     0                     237.8181243  168.00671  29.4%     -    1s
H    0     0                     199.3393361  168.00671  15.7%     -    6s
     0     2  168.00671    0   15  199.33934  168.00671  15.7%     -    6s
H   97   126                     197.7314082  171.27502  13.4%   250   13s
H   98   126                     197.2907005  171.27502  13.2%   251   13s
H  100   126                     197.1412790  171.27502  13.1%   249   13s
H  101   126                     196.9171926  171.27502  13.0%   247   13s
H  102   126                     196.2507779  171.27502  12.7%   246   13s
*  863   481              25     196.2507777  171.46138  12.6%   162   14s
  1160   543     cutoff   16       196.25078  171.46138  12.6%   158   17s
  2922   835     cutoff   16       196.25078  176.32848  10.2%   152   20s
  3300   865  183.68896    9    9  196.25078  177.48180  9.56%   151   29s
  4148  1202     cutoff   14       196.25078  180.34695  8.10%   148   30s
  6085  1624     cutoff   14       196.25078  184.07409  6.20%   137   35s
  7971  1897     cutoff   19       196.25078  186.07736  5.18%   128   41s
 10368  2139  187.68462   11   15  196.25078  186.69227  4.87%   119   49s
 10376  2144  188.27502   16   15  196.25078  186.69227  4.87%   119   50s
 10382  2148  187.25649   12   15  196.25078  186.69227  4.87%   119   55s
 10477  2233  186.69227   18   13  196.25078  186.69227  4.87%   121   62s
 10634  2297  186.69227   20   14  196.25078  186.69227  4.87%   121   65s
 10998  2292  186.69227   22   11  196.25078  186.69227  4.87%   122   70s
 19983  1352     cutoff   28       196.25078  189.56014  3.41%   110   78s
 21180  1271  195.48991   34    1  196.25078  190.33675  3.01%   108   83s
 25896   470     cutoff   23       196.25078  193.05055  1.63%   100   88s

Cutting planes:
  Gomory: 8
  Implied bound: 365
  MIR: 166
  Flow cover: 255
  RLT: 18
  Relax-and-lift: 18

Explored 27147 nodes (2638766 simplex iterations) in 89.10 seconds (113.35 work units)
Thread count was 36 (of 36 available processors)

Solution count 10: 196.251 196.251 196.917 ... 312.756

Optimal solution found (tolerance 1.00e-02)
Best objective 1.962507777435e+02, best bound 1.957350031364e+02, gap 0.2628%

Gurobi 11.0.0 (linux64) logging started Fri Apr 12 13:54:27 2024

Set parameter LogFile to value "/lustre1/scratch/348/vsc34888/JointResearch/05.Models/06.Benchmarking/K.Investments_per_hour/RTS24_ByStages_nc30/openStarNet_RTS24_ByStages_nc30.log"
Set parameter Method to value 2
Set parameter MIPFocus to value 1
Set parameter Presolve to value 2
Set parameter RINS to value 100
Set parameter MIPGap to value 0.01
Set parameter Threads to value 36
Set parameter TimeLimit to value 259200
Set parameter IterationLimit to value 760000000
Gurobi Optimizer version 11.0.0 build v11.0.0rc2 (linux64 - "Rocky Linux 8.8 (Green Obsidian)")

CPU model: Intel(R) Xeon(R) Gold 6240 CPU @ 2.60GHz, instruction set [SSE2|AVX|AVX2|AVX512]
Thread count: 36 physical cores, 36 logical processors, using up to 36 threads

Optimize a model with 11673 rows, 6881 columns and 27242 nonzeros
Model fingerprint: 0x15480ba2
Coefficient statistics:
  Matrix range     [3e-02, 8e+02]
  Objective range  [1e+00, 1e+00]
  Bounds range     [8e-04, 3e+00]
  RHS range        [8e-04, 5e+01]
Presolve removed 9901 rows and 3958 columns
Presolve time: 0.01s
Presolved: 1772 rows, 2983 columns, 8355 nonzeros

Ordering time: 0.00s

Barrier statistics:
 AA' NZ     : 5.437e+03
 Factor NZ  : 1.567e+04 (roughly 2 MB of memory)
 Factor Ops : 2.117e+05 (less than 1 second per iteration)
 Threads    : 1

                  Objective                Residual
Iter       Primal          Dual         Primal    Dual     Compl     Time
   0   5.43264604e+06 -5.18626462e+07  2.49e+01 2.06e+03  2.17e+05     0s
   1   3.40881391e+05 -4.43465600e+07  1.46e+00 3.43e+03  2.02e+04     0s
   2   6.77963431e+04 -1.37290830e+07  2.09e-01 1.64e-10  3.65e+03     0s
   3   3.48471435e+04 -2.04849221e+06  4.12e-02 5.46e-11  4.64e+02     0s
   4   2.34109157e+04 -1.41113371e+05  3.06e-12 5.96e-11  3.30e+01     0s
   5   8.43352988e+03 -2.42196139e+04  2.36e-11 1.73e-11  6.54e+00     0s
   6   6.95728297e+02 -2.56430015e+03  3.82e-12 3.64e-12  6.53e-01     0s
   7   4.31166554e+02 -6.77793640e+02  1.76e-12 7.28e-12  2.22e-01     0s
   8   2.97953430e+02 -3.61932699e+01  6.74e-13 3.64e-12  6.69e-02     0s
   9   2.34725717e+02  1.14359935e+02  1.63e-12 3.64e-12  2.41e-02     0s
  10   2.09602080e+02  1.55671053e+02  7.45e-12 3.64e-12  1.08e-02     0s
  11   2.02424963e+02  1.75690099e+02  3.00e-12 7.28e-12  5.36e-03     0s
  12   1.97982267e+02  1.94946184e+02  1.32e-12 1.46e-11  6.08e-04     0s
  13   1.96415159e+02  1.96134114e+02  6.63e-12 1.46e-11  5.63e-05     0s
  14   1.96263383e+02  1.96246428e+02  4.13e-11 7.28e-12  3.40e-06     0s
  15   1.96250836e+02  1.96250761e+02  2.65e-11 7.28e-12  1.51e-08     0s
  16   1.96250778e+02  1.96250778e+02  1.81e-09 3.64e-12  4.30e-13     0s

Barrier solved model in 16 iterations and 0.04 seconds (0.03 work units)
Optimal objective 1.96250778e+02

Crossover log...

     342 DPushes remaining with DInf 0.0000000e+00                 0s
       0 DPushes remaining with DInf 0.0000000e+00                 0s

      73 PPushes remaining with PInf 0.0000000e+00                 0s
       0 PPushes remaining with PInf 0.0000000e+00                 0s

  Push phase complete: Pinf 0.0000000e+00, Dinf 1.3640109e-12      0s

Iteration    Objective       Primal Inf.    Dual Inf.      Time
      77    1.9625078e+02   0.000000e+00   0.000000e+00      0s

Use crossover to convert LP symmetric solution to basic solution...
Crossover log...

      36 PPushes remaining with PInf 0.0000000e+00                 0s
       0 PPushes remaining with PInf 0.0000000e+00                 0s

  Push phase complete: Pinf 0.0000000e+00, Dinf 1.9795723e-12      0s

Iteration    Objective       Primal Inf.    Dual Inf.      Time
     116    1.9625078e+02   0.000000e+00   0.000000e+00      0s

Solved in 116 iterations and 0.06 seconds (0.04 work units)
Optimal objective  1.962507779e+02
